
Log started (V11.0.0) Sun Apr 13 14:40:15 2008

Tried aggregator 1 time.
Reduced MIP has 510 rows, 5001 columns, and 10010 nonzeros.
Presolve time =    0.03 sec.
Clique table members: 500.
MIP emphasis: balance optimality and feasibility.
MIP search method: dynamic search.
Parallel mode: none, using 1 thread.
Root relaxation solution time =    0.13 sec.

        Nodes                                         Cuts/
   Node  Left     Objective  IInf  Best Integer     Best Node    ItCnt     Gap

*     0+    0                        25506.0000      495.7018      574   98.06%
*     0+    0                          515.0000      495.7018      574    3.75%
      0     0      496.0000    20      515.0000     Fract: 10      587    3.69%
*     0+    0                          514.0000      496.0000      587    3.50%
      0     0      496.0000    21      514.0000     Covers: 1      591    3.50%
      0     0      496.0000    25      514.0000     Covers: 2      603    3.50%
*     0+    0                          508.0000      496.0000      603    2.36%
*     0+    0                          504.0000      496.0000      603    1.59%
      0     2      496.0000    25      504.0000      496.0000      603    1.59%
*    30+   28                          502.0000      496.0000     2132    1.20%
*    80+   64                          501.0000      496.0000     3572    1.00%
    100    72      499.0000    16      501.0000      496.0000     4094    1.00%
    200   114      500.0000    14      501.0000      496.0000     7047    1.00%
*   213+   55                          499.0000      496.0000     7304    0.60%
    300   129      498.0000    20      499.0000      496.0000     8381    0.60%
    400   200      498.0000    18      499.0000      496.0000     9227    0.60%
    500   278      498.0000    20      499.0000      496.0000    10603    0.60%
    600   299      497.0000    18      499.0000      497.0000    15784    0.40%
    700   296      498.0000    21      499.0000      497.0000    21110    0.40%
    800   289      497.0776    26      499.0000      497.0000    28256    0.40%
*   833+  142                          498.0000      497.0000    30025    0.20%
    900   130      497.0000    38      498.0000      497.0000    35521    0.20%
   1000   200      497.0000    19      498.0000      497.0000    48985    0.20%
Elapsed time =  15.17 sec. (tree size =  0.11 MB, solutions = 9)
   1100   271      497.0000    36      498.0000      497.0000    58849    0.20%
   1200   361    infeasible            498.0000      497.0000    67056    0.20%
   1300   435      497.0000    43      498.0000      497.0000    79719    0.20%
   1400   508      497.0000    30      498.0000      497.0000    92936    0.20%
   1500   581      497.0000    50      498.0000      497.0000   109741    0.20%
   1600   637      497.0000    55      498.0000      497.0000   128744    0.20%
   1700   709    infeasible            498.0000      497.0000   145373    0.20%
   1800   757      497.0000    36      498.0000      497.0000   165082    0.20%
   1900   821      497.0000    44      498.0000      497.0000   180292    0.20%
   2000   900      497.0000    27      498.0000      497.0000   197156    0.20%
Elapsed time =  45.03 sec. (tree size =  0.55 MB, solutions = 9)
   2100   964      497.0000    50      498.0000      497.0000   217134    0.20%
   2200   998    infeasible            498.0000      497.0000   242559    0.20%
   2300  1066    infeasible            498.0000      497.0000   263059    0.20%
   2400  1107      497.0000    52      498.0000      497.0000   291549    0.20%
   2500  1157      497.0000    51      498.0000      497.0000   316662    0.20%
   2600  1229      497.0000    24      498.0000      497.0000   337925    0.20%
   2700  1303      497.0000    36      498.0000      497.0000   356623    0.20%
   2800  1368      497.0000    68      498.0000      497.0000   381277    0.20%
   2900  1412      497.0000    51      498.0000      497.0000   412552    0.20%
   3000  1476      497.0000    66      498.0000      497.0000   438172    0.20%
Elapsed time = 119.77 sec. (tree size =  0.96 MB, solutions = 9)
   3100  1556      497.0000    42      498.0000      497.0000   460432    0.20%
   3200  1641      497.0000    50      498.0000      497.0000   481372    0.20%
*  3233+    1                          497.0000      497.0000   488778    0.00%

Cover cuts applied:  930
Mixed integer rounding cuts applied:  27
Gomory fractional cuts applied:  10

Solution pool: 10 solutions saved.

MIP - Integer optimal solution:  Objective = 4.9700000000e+002
Solution time =  139.64 sec.  Iterations = 488778  Nodes = 3233


Incumbent solution
Variable Name           Solution Value
Cmax                        497.000000
X_1_6                         1.000000
X_2_6                         1.000000
X_3_7                         1.000000
X_4_4                         1.000000
X_5_7                         1.000000
X_6_6                         1.000000
X_7_1                         1.000000
X_8_8                         1.000000
X_9_9                         1.000000
X_10_4                        1.000000
X_11_4                        1.000000
X_12_7                        1.000000
X_13_6                        1.000000
X_14_8                        1.000000
X_15_1                        1.000000
X_16_3                        1.000000
X_17_6                        1.000000
X_18_5                        1.000000
X_19_2                        1.000000
X_20_10                       1.000000
X_21_10                       1.000000
X_22_9                        1.000000
X_23_10                       1.000000
X_24_3                        1.000000
X_25_9                        1.000000
X_26_5                        1.000000
X_27_8                        1.000000
X_28_8                        1.000000
X_29_2                        1.000000
X_30_8                        1.000000
X_31_6                        1.000000
X_32_10                       1.000000
X_33_3                        1.000000
X_34_1                        1.000000
X_35_1                        1.000000
X_36_2                        1.000000
X_37_10                       1.000000
X_38_6                        1.000000
X_39_10                       1.000000
X_40_5                        1.000000
X_41_2                        1.000000
X_42_4                        1.000000
X_43_2                        1.000000
X_44_5                        1.000000
X_45_5                        1.000000
X_46_4                        1.000000
X_47_5                        1.000000
X_48_3                        1.000000
X_49_7                        1.000000
X_50_8                        1.000000
X_51_9                        1.000000
X_52_4                        1.000000
X_53_2                        1.000000
X_54_7                        1.000000
X_55_6                        1.000000
X_56_7                        1.000000
X_57_2                        1.000000
X_58_2                        1.000000
X_59_3                        1.000000
X_60_8                        1.000000
X_61_5                        1.000000
X_62_9                        1.000000
X_63_3                        1.000000
X_64_6                        1.000000
X_65_3                        1.000000
X_66_4                        1.000000
X_67_10                       1.000000
X_68_10                       1.000000
X_69_10                       1.000000
X_70_1                        1.000000
X_71_1                        1.000000
X_72_10                       1.000000
X_73_10                       1.000000
X_74_5                        1.000000
X_75_6                        1.000000
X_76_2                        1.000000
X_77_6                        1.000000
X_78_2                        1.000000
X_79_9                        1.000000
X_80_5                        1.000000
X_81_1                        1.000000
X_82_4                        1.000000
X_83_2                        1.000000
X_84_2                        1.000000
X_85_10                       1.000000
X_86_7                        1.000000
X_87_7                        1.000000
X_88_9                        1.000000
X_89_5                        1.000000
X_90_8                        1.000000
X_91_10                       1.000000
X_92_1                        1.000000
X_93_6                        1.000000
X_94_1                        1.000000
X_95_5                        1.000000
X_96_7                        1.000000
X_97_8                        1.000000
X_98_7                        1.000000
X_99_6                        1.000000
X_100_5                       1.000000
X_101_2                       1.000000
X_102_4                       1.000000
X_103_4                       1.000000
X_104_2                       1.000000
X_105_8                       1.000000
X_106_8                       1.000000
X_107_7                       1.000000
X_108_1                       1.000000
X_109_5                       1.000000
X_110_6                       1.000000
X_111_1                       1.000000
X_112_8                       1.000000
X_113_2                       1.000000
X_114_6                       1.000000
X_115_3                       1.000000
X_116_4                       1.000000
X_117_2                       1.000000
X_118_1                       1.000000
X_119_3                       1.000000
X_120_8                       1.000000
X_121_3                       1.000000
X_122_9                       1.000000
X_123_8                       1.000000
X_124_3                       1.000000
X_125_9                       1.000000
X_126_5                       1.000000
X_127_2                       1.000000
X_128_4                       1.000000
X_129_4                       1.000000
X_130_7                       1.000000
X_131_9                       1.000000
X_132_5                       1.000000
X_133_9                       1.000000
X_134_7                       1.000000
X_135_6                       1.000000
X_136_9                       1.000000
X_137_3                       1.000000
X_138_8                       1.000000
X_139_3                       1.000000
X_140_1                       1.000000
X_141_10                      1.000000
X_142_7                       1.000000
X_143_3                       1.000000
X_144_6                       1.000000
X_145_9                       1.000000
X_146_7                       1.000000
X_147_3                       1.000000
X_148_9                       1.000000
X_149_10                      1.000000
X_150_7                       1.000000
X_151_1                       1.000000
X_152_8                       1.000000
X_153_9                       1.000000
X_154_10                      1.000000
X_155_4                       1.000000
X_156_3                       1.000000
X_157_4                       1.000000
X_158_9                       1.000000
X_159_5                       1.000000
X_160_7                       1.000000
X_161_3                       1.000000
X_162_3                       1.000000
X_163_9                       1.000000
X_164_7                       1.000000
X_165_10                      1.000000
X_166_6                       1.000000
X_167_10                      1.000000
X_168_7                       1.000000
X_169_3                       1.000000
X_170_10                      1.000000
X_171_5                       1.000000
X_172_9                       1.000000
X_173_5                       1.000000
X_174_9                       1.000000
X_175_9                       1.000000
X_176_2                       1.000000
X_177_10                      1.000000
X_178_2                       1.000000
X_179_4                       1.000000
X_180_10                      1.000000
X_181_9                       1.000000
X_182_5                       1.000000
X_183_6                       1.000000
X_184_8                       1.000000
X_185_5                       1.000000
X_186_5                       1.000000
X_187_7                       1.000000
X_188_5                       1.000000
X_189_2                       1.000000
X_190_8                       1.000000
X_191_4                       1.000000
X_192_4                       1.000000
X_193_7                       1.000000
X_194_1                       1.000000
X_195_9                       1.000000
X_196_4                       1.000000
X_197_1                       1.000000
X_198_6                       1.000000
X_199_6                       1.000000
X_200_10                      1.000000
X_201_1                       1.000000
X_202_3                       1.000000
X_203_9                       1.000000
X_204_9                       1.000000
X_205_10                      1.000000
X_206_4                       1.000000
X_207_5                       1.000000
X_208_6                       1.000000
X_209_5                       1.000000
X_210_5                       1.000000
X_211_2                       1.000000
X_212_3                       1.000000
X_213_3                       1.000000
X_214_7                       1.000000
X_215_5                       1.000000
X_216_9                       1.000000
X_217_5                       1.000000
X_218_9                       1.000000
X_219_6                       1.000000
X_220_1                       1.000000
X_221_8                       1.000000
X_222_5                       1.000000
X_223_8                       1.000000
X_224_1                       1.000000
X_225_9                       1.000000
X_226_2                       1.000000
X_227_9                       1.000000
X_228_6                       1.000000
X_229_1                       1.000000
X_230_5                       1.000000
X_231_8                       1.000000
X_232_7                       1.000000
X_233_3                       1.000000
X_234_7                       1.000000
X_235_10                      1.000000
X_236_7                       1.000000
X_237_2                       1.000000
X_238_5                       1.000000
X_239_8                       1.000000
X_240_1                       1.000000
X_241_4                       1.000000
X_242_7                       1.000000
X_243_1                       1.000000
X_244_10                      1.000000
X_245_4                       1.000000
X_246_10                      1.000000
X_247_10                      1.000000
X_248_7                       1.000000
X_249_2                       1.000000
X_250_7                       1.000000
X_251_10                      1.000000
X_252_2                       1.000000
X_253_10                      1.000000
X_254_5                       1.000000
X_255_2                       1.000000
X_256_2                       1.000000
X_257_3                       1.000000
X_258_1                       1.000000
X_259_6                       1.000000
X_260_1                       1.000000
X_261_8                       1.000000
X_262_5                       1.000000
X_263_8                       1.000000
X_264_7                       1.000000
X_265_8                       1.000000
X_266_6                       1.000000
X_267_9                       1.000000
X_268_2                       1.000000
X_269_4                       1.000000
X_270_9                       1.000000
X_271_10                      1.000000
X_272_6                       1.000000
X_273_4                       1.000000
X_274_9                       1.000000
X_275_2                       1.000000
X_276_2                       1.000000
X_277_2                       1.000000
X_278_8                       1.000000
X_279_8                       1.000000
X_280_3                       1.000000
X_281_3                       1.000000
X_282_7                       1.000000
X_283_6                       1.000000
X_284_4                       1.000000
X_285_1                       1.000000
X_286_6                       1.000000
X_287_5                       1.000000
X_288_1                       1.000000
X_289_5                       1.000000
X_290_3                       1.000000
X_291_4                       1.000000
X_292_10                      1.000000
X_293_3                       1.000000
X_294_2                       1.000000
X_295_5                       1.000000
X_296_1                       1.000000
X_297_3                       1.000000
X_298_1                       1.000000
X_299_5                       1.000000
X_300_1                       1.000000
X_301_3                       1.000000
X_302_8                       1.000000
X_303_7                       1.000000
X_304_4                       1.000000
X_305_1                       1.000000
X_306_8                       1.000000
X_307_1                       1.000000
X_308_2                       1.000000
X_309_7                       1.000000
X_310_4                       1.000000
X_311_4                       1.000000
X_312_6                       1.000000
X_313_10                      1.000000
X_314_8                       1.000000
X_315_9                       1.000000
X_316_10                      1.000000
X_317_4                       1.000000
X_318_6                       1.000000
X_319_5                       1.000000
X_320_10                      1.000000
X_321_7                       1.000000
X_322_4                       1.000000
X_323_3                       1.000000
X_324_10                      1.000000
X_325_2                       1.000000
X_326_10                      1.000000
X_327_7                       1.000000
X_328_6                       1.000000
X_329_9                       1.000000
X_330_1                       1.000000
X_331_1                       1.000000
X_332_3                       1.000000
X_333_3                       1.000000
X_334_1                       1.000000
X_335_4                       1.000000
X_336_3                       1.000000
X_337_4                       1.000000
X_338_10                      1.000000
X_339_10                      1.000000
X_340_1                       1.000000
X_341_4                       1.000000
X_342_8                       1.000000
X_343_8                       1.000000
X_344_9                       1.000000
X_345_6                       1.000000
X_346_1                       1.000000
X_347_9                       1.000000
X_348_8                       1.000000
X_349_10                      1.000000
X_350_7                       1.000000
X_351_3                       1.000000
X_352_1                       1.000000
X_353_2                       1.000000
X_354_1                       1.000000
X_355_1                       1.000000
X_356_3                       1.000000
X_357_10                      1.000000
X_358_7                       1.000000
X_359_9                       1.000000
X_360_4                       1.000000
X_361_1                       1.000000
X_362_7                       1.000000
X_363_3                       1.000000
X_364_10                      1.000000
X_365_1                       1.000000
X_366_10                      1.000000
X_367_10                      1.000000
X_368_6                       1.000000
X_369_1                       1.000000
X_370_9                       1.000000
X_371_10                      1.000000
X_372_8                       1.000000
X_373_2                       1.000000
X_374_8                       1.000000
X_375_2                       1.000000
X_376_1                       1.000000
X_377_4                       1.000000
X_378_4                       1.000000
X_379_4                       1.000000
X_380_2                       1.000000
X_381_1                       1.000000
X_382_10                      1.000000
X_383_9                       1.000000
X_384_9                       1.000000
X_385_10                      1.000000
X_386_8                       1.000000
X_387_9                       1.000000
X_388_4                       1.000000
X_389_9                       1.000000
X_390_6                       1.000000
X_391_1                       1.000000
X_392_8                       1.000000
X_393_5                       1.000000
X_394_7                       1.000000
X_395_4                       1.000000
X_396_3                       1.000000
X_397_7                       1.000000
X_398_1                       1.000000
X_399_2                       1.000000
X_400_6                       1.000000
X_401_2                       1.000000
X_402_3                       1.000000
X_403_9                       1.000000
X_404_7                       1.000000
X_405_8                       1.000000
X_406_1                       1.000000
X_407_3                       1.000000
X_408_4                       1.000000
X_409_2                       1.000000
X_410_6                       1.000000
X_411_4                       1.000000
X_412_5                       1.000000
X_413_8                       1.000000
X_414_4                       1.000000
X_415_10                      1.000000
X_416_9                       1.000000
X_417_3                       1.000000
X_418_8                       1.000000
X_419_7                       1.000000
X_420_5                       1.000000
X_421_4                       1.000000
X_422_4                       1.000000
X_423_6                       1.000000
X_424_9                       1.000000
X_425_1                       1.000000
X_426_4                       1.000000
X_427_6                       1.000000
X_428_1                       1.000000
X_429_8                       1.000000
X_430_10                      1.000000
X_431_4                       1.000000
X_432_9                       1.000000
X_433_6                       1.000000
X_434_9                       1.000000
X_435_2                       1.000000
X_436_7                       1.000000
X_437_6                       1.000000
X_438_10                      1.000000
X_439_8                       1.000000
X_440_7                       1.000000
X_441_7                       1.000000
X_442_5                       1.000000
X_443_10                      1.000000
X_444_9                       1.000000
X_445_9                       1.000000
X_446_1                       1.000000
X_447_1                       1.000000
X_448_5                       1.000000
X_449_8                       1.000000
X_450_7                       1.000000
X_451_2                       1.000000
X_452_10                      1.000000
X_453_1                       1.000000
X_454_10                      1.000000
X_455_3                       1.000000
X_456_10                      1.000000
X_457_8                       1.000000
X_458_2                       1.000000
X_459_9                       1.000000
X_460_3                       1.000000
X_461_4                       1.000000
X_462_7                       1.000000
X_463_6                       1.000000
X_464_6                       1.000000
X_465_2                       1.000000
X_466_8                       1.000000
X_467_5                       1.000000
X_468_8                       1.000000
X_469_1                       1.000000
X_470_1                       1.000000
X_471_4                       1.000000
X_472_7                       1.000000
X_473_2                       1.000000
X_474_8                       1.000000
X_475_9                       1.000000
X_476_8                       1.000000
X_477_7                       1.000000
X_478_7                       1.000000
X_479_9                       1.000000
X_480_7                       1.000000
X_481_10                      1.000000
X_482_2                       1.000000
X_483_2                       1.000000
X_484_7                       1.000000
X_485_7                       1.000000
X_486_6                       1.000000
X_487_5                       1.000000
X_488_10                      1.000000
X_489_2                       1.000000
X_490_1                       1.000000
X_491_7                       1.000000
X_492_6                       1.000000
X_493_8                       1.000000
X_494_1                       1.000000
X_495_10                      1.000000
X_496_3                       1.000000
X_497_3                       1.000000
X_498_3                       1.000000
X_499_5                       1.000000
X_500_3                       1.000000
All other variables in the range 1-5001 are 0.
